(define-fun F ((s Int) (t Int)) Int (ite (>= t s) (ite (>= s 4) (ite (>= s 6) s (ite (= s 5) (ite (= t 6) 4 s) s)) (ite (>= s 2) (ite (= t 5) (- s 2) (ite (= t 4) 0 (ite (= s 3) (ite (= t 6) 2 s) s))) (ite (= s 1) (ite (= t 6) 0 (ite (= t 2) 0 (ite (= t 4) 0 s))) 0))) (ite (>= t 4) (ite (= t 4) t (ite (= t 5) (- s 2) t)) (ite (>= t 2) (ite (>= s 6) (ite (= t 2) t (- s 4)) (ite (= s 3) t (ite (= s 4) 0 (ite (= t 3) 1 0)))) (ite (>= t 1) (ite (= s 2) 0 (ite (= s 6) 0 (ite (= s 4) 0 t))) 0)))))
